[Vehicles]
1 7 0
2 6 1
3 7 0
4 6 1
5 7 0
6 7 1

[Requests]
2 2
3 1
4 3
5 2
6 1
7 3
8 2
9 2
10 1
11 1
12 1
13 2
14 1
15 1
16 3
17 1
18 1
19 1
20 2
21 1
22 3
23 1
24 1
25 2
26 2
27 3
28 2
29 1
30 3
31 1



[Fixed lines]
62 63 30 60 90 120 150 180 210 240 270 300 330 360 390 420 450 480 510 540 570 |
63 62 30 60 90 120 150 180 210 240 270 300 330 360 390 420 450 480 510 540 570 |
64 66 30 60 90 120 150 180 210 240 270 300 330 360 390 420 450 480 510 540 570 |
66 64 30 60 90 120 150 180 210 240 270 300 330 360 390 420 450 480 510 540 570 |
63 65 30 60 90 120 150 180 210 240 270 300 330 360 390 420 450 480 510 540 570 |
65 63 30 60 90 120 150 180 210 240 270 300 330 360 390 420 450 480 510 540 570 |
63 66 30 60 90 120 150 180 210 240 270 300 330 360 390 420 450 480 510 540 570 |
66 63 30 60 90 120 150 180 210 240 270 300 330 360 390 420 450 480 510 540 570 |



[Nodes]
0 0 600 0 
1 0 600 0 

2 160 210 2
3 0 50 1
4 181 228 3
5 7 55 3
6 14 64 3
7 142 189 3
8 230 289 3
9 296 331 2
10 111 173 1
11 229 271 3
12 0 50 1
13 308 343 3
14 183 237 1
15 13 56 1
16 0 27 1
17 108 140 1
18 4 39 2
19 227 265 3
20 97 163 2
21 203 256 2
22 286 344 2
23 332 383 2
24 265 315 3
25 39 97 3
26 304 353 1
27 0 46 1
28 83 133 2
29 270 315 3
30 332 367 1
31 80 123 3
32 196 240 3
33 274 342 2
34 252 290 2
35 136 189 2
36 182 219 1
37 375 431 2
38 329 381 2
39 378 444 2
40 153 210 1
41 267 314 3
42 128 168 2
43 349 398 1
44 374 434 2
45 89 132 2
46 125 162 1
47 184 230 1
48 175 238 2
49 274 329 3
50 141 190 1
51 244 296 2
52 312 376 2
53 388 427 2
54 337 397 2
55 83 133 2
56 376 408 2
57 175 227 2
58 121 158 2
59 347 403 2
60 375 429 2
61 76 125 2
62 0 600 2 
63 0 600 2 
64 0 600 2 
65 0 600 2 
66 0 600 2 

[Positions]
35 38
53 19
23 20

56 23
37 43
57 13
42 37
39 40
35 35
35 40
58 11
59 14
26 18
38 45
53 15
40 42
24 23
25 17
35 44
39 41
56 11
36 42
41 43
53 15
34 35
37 45
56 13
31 45
33 49
56 15
38 40
23 17
30 42

27 18
20 16
27 16
28 23
29 17
55 19
24 19
37 41
37 37
35 43
20 16
41 41
53 14
40 43
33 44
28 25
53 12
40 41
22 24
23 26
39 37
54 14
29 20
39 44
55 19
50 16
29 41
26 20
52 15
50 16

25 20
38 42
30 43
48 25
53 15

[Demands]
0 2 6
-1 1 5
2 3 4
-1 2 5
0 1 3
0 3 5
-1 2 5
0 2 3
0 1 3
0 1 2
0 1 2
0 2 4
0 1 2
-1 1 2
2 3 5
0 1 3
-1 1 2
0 1 5
1 2 6
0 1 3
1 3 4
0 1 3
0 1 3
-1 2 6
1 2 6
2 3 4
1 2 4
-1 1 5
1 3 4
0 1 2